
   AbsCon 1.41 (January, 2014) - defaultConfiguration

   
   instance
        framework=CSP  name=Isomorphism-/cluster/gpg/ciaran/sip-benchmarks/benchmarks/meshes-CVIU11/patterns/pattern3-/cluster/gpg/ciaran/sip-benchmarks/benchmarks/meshes-CVIU11/targets/target147
        parameters=/cluster/gpg/ciaran/sip-benchmarks/benchmarks/meshes-CVIU11/patterns/pattern3,/cluster/gpg/ciaran/sip-benchmarks/benchmarks/meshes-CVIU11/targets/target147
      

   loading variables...
        nbVariables=163  nbDomainTypes=1  nbTotalValues=269602  domainSizes=(1654:163)
          =>  wckTime=0.261  cpuTime=0.33  mem=31M32

   loading objectives...

   loading constraints...
        nbConstraints=290  nbSpecificConstraints=1  nbExtensionStructures=(2,shared:287)  nbConflictsStructures=(1,shared:287,unbuilt:2)
        degrees=(2:14)(3:29)(4:105)...(6:1)(7:1)(132:1)  arities=(1:1)(2:288)(163:1)  types=(AllDifferent:1)(ConstraintHardExtensionV-Bits:288)(ConstraintHardExtensionV-Table:1)
        tables=(0:1)  nbTotalTuples=0
          =>  wckTime=0.495  cpuTime=0.55  mem=48M484

   INFO : <!-- Start saving the XML representation -->

   INFO : <!-- Stop saving the XML representation of target147.xml -->

   Solver SolverBacktrack being built... 
          =>  wckTime=1.272  cpuTime=1.258  mem=236M564

   
   search
        run=0  nbConstraintChecks=1653  depth=(min:0,max:0,avg:1)  nbEffectivePropagations=1  nbRevisions=1  nbUselessRevisions=0
        nbAssignments=1  nbFailedAssignments=1  nbBacktracks=1  nbVisitedNodes=3  nbRestartNogoods=0
          =>  wckTime=0.157  cpuTime=1.387  mem=262M73

   
   global
        nbConstraintChecks=1653  nbEffectivePropagations=1  nbRevisions=1  nbUselessRevisions=0  nbRestartNogoods=0  solvingWckTime=0.158
        expiredTime=no  totalExploration=yes  nbFoundSolutions=0  Stop=FULL_EXPLORATION
          =>  wckTime=1.43  cpuTime=1.387  mem=262M73

s UNSATISFIABLE
d NODES 1

   totalWckTime=1.314  totalCpuTime=1.388
